\* The_Whiskas_Problem *\
Minimize
Total_Cost_of_Ingredients_per_can: 0.013 Beef + 0.008 Chicken + 0.01 Sardines
Subject To
FatRequirement: 0.08 Beef + 0.1 Chicken + 0.135 Sardines >= 6
FibreRequirement: 0.001 Beef + 0.005 Chicken <= 2
PercentagesSum: Beef + Chicken + Sardines = 100
ProteinRequirement: 0.1 Beef + 0.2 Chicken + 0.193 Sardines >= 8
SaltRequirement: 0.002 Beef + 0.005 Chicken + 0.003 Sardines <= 0.4
VitamineBRequirement: 0.003 Beef + 0.026 Chicken + 0.089 Sardines >= 0.8
End
